c Generated map
c Size: 13 * 13, weights in range: 1 to 10, walls: True, with ratio 0.1
c dim 2 of 3
c
p sp 169 248
c graph contains 169 nodes and 248 arcs
c
a 1 2 5
a 2 1 5
a 2 15 1
a 15 2 1
a 2 3 4
a 3 2 4
a 3 16 2
a 16 3 2
a 5 18 6
a 18 5 6
a 5 6 7
a 6 5 7
a 6 19 1
a 19 6 1
a 6 7 9
a 7 6 9
a 7 20 9
a 20 7 9
a 7 8 10
a 8 7 10
a 8 21 2
a 21 8 2
a 8 9 3
a 9 8 3
a 9 22 7
a 22 9 7
a 9 10 7
a 10 9 7
a 10 11 7
a 11 10 7
a 11 24 7
a 24 11 7
a 11 12 5
a 12 11 5
a 12 25 2
a 25 12 2
a 12 13 3
a 13 12 3
a 13 26 8
a 26 13 8
a 15 28 10
a 28 15 10
a 15 16 10
a 16 15 10
a 16 29 10
a 29 16 10
a 16 17 9
a 17 16 9
a 17 30 10
a 30 17 10
a 17 18 2
a 18 17 2
a 18 19 8
a 19 18 8
a 19 32 8
a 32 19 8
a 19 20 9
a 20 19 9
a 20 21 3
a 21 20 3
a 21 34 6
a 34 21 6
a 21 22 7
a 22 21 7
a 22 35 6
a 35 22 6
a 24 37 1
a 37 24 1
a 24 25 1
a 25 24 1
a 25 38 9
a 38 25 9
a 25 26 8
a 26 25 8
a 26 39 1
a 39 26 1
a 27 40 5
a 40 27 5
a 27 28 2
a 28 27 2
a 28 41 4
a 41 28 4
a 28 29 4
a 29 28 4
a 29 42 8
a 42 29 8
a 29 30 10
a 30 29 10
a 30 43 7
a 43 30 7
a 32 45 10
a 45 32 10
a 34 47 2
a 47 34 2
a 34 35 1
a 35 34 1
a 35 48 4
a 48 35 4
a 35 36 5
a 36 35 5
a 36 49 4
a 49 36 4
a 36 37 2
a 37 36 2
a 37 50 8
a 50 37 8
a 37 38 6
a 38 37 6
a 38 39 6
a 39 38 6
a 39 52 5
a 52 39 5
a 40 53 4
a 53 40 4
a 40 41 7
a 41 40 7
a 41 54 8
a 54 41 8
a 41 42 2
a 42 41 2
a 42 55 9
a 55 42 9
a 42 43 2
a 43 42 2
a 43 56 3
a 56 43 3
a 43 44 5
a 44 43 5
a 44 57 2
a 57 44 2
a 44 45 1
a 45 44 1
a 45 58 1
a 58 45 1
a 45 46 8
a 46 45 8
a 46 59 1
a 59 46 1
a 46 47 7
a 47 46 7
a 47 60 2
a 60 47 2
a 47 48 6
a 48 47 6
a 48 61 4
a 61 48 4
a 48 49 5
a 49 48 5
a 49 62 4
a 62 49 4
a 49 50 5
a 50 49 5
a 50 63 4
a 63 50 4
a 52 65 9
a 65 52 9
a 53 66 6
a 66 53 6
a 53 54 5
a 54 53 5
a 54 67 4
a 67 54 4
a 54 55 6
a 55 54 6
a 55 68 5
a 68 55 5
a 55 56 8
a 56 55 8
a 56 69 7
a 69 56 7
a 56 57 1
a 57 56 1
a 57 58 2
a 58 57 2
a 58 71 10
a 71 58 10
a 58 59 1
a 59 58 1
a 59 72 3
a 72 59 3
a 59 60 9
a 60 59 9
a 60 73 1
a 73 60 1
a 60 61 9
a 61 60 9
a 61 62 9
a 62 61 9
a 62 75 5
a 75 62 5
a 62 63 4
a 63 62 4
a 63 76 5
a 76 63 5
a 63 64 7
a 64 63 7
a 64 77 1
a 77 64 1
a 64 65 7
a 65 64 7
a 65 78 7
a 78 65 7
a 66 67 1
a 67 66 1
a 67 80 5
a 80 67 5
a 67 68 8
a 68 67 8
a 68 81 2
a 81 68 2
a 68 69 4
a 69 68 4
a 69 82 7
a 82 69 7
a 71 84 7
a 84 71 7
a 71 72 1
a 72 71 1
a 72 85 2
a 85 72 2
a 72 73 3
a 73 72 3
a 73 86 9
a 86 73 9
a 75 88 10
a 88 75 10
a 75 76 10
a 76 75 10
a 76 89 4
a 89 76 4
a 76 77 4
a 77 76 4
a 77 90 3
a 90 77 3
a 77 78 2
a 78 77 2
a 78 91 5
a 91 78 5
a 80 93 1
a 93 80 1
a 80 81 4
a 81 80 4
a 81 94 2
a 94 81 2
a 81 82 9
a 82 81 9
a 82 95 5
a 95 82 5
a 82 83 3
a 83 82 3
a 83 96 5
a 96 83 5
a 83 84 1
a 84 83 1
a 84 97 3
a 97 84 3
a 84 85 7
a 85 84 7
a 85 98 6
a 98 85 6
a 85 86 5
a 86 85 5
a 86 99 10
a 99 86 10
a 86 87 7
a 87 86 7
a 87 100 4
a 100 87 4
a 87 88 3
a 88 87 3
a 88 101 1
a 101 88 1
a 88 89 4
a 89 88 4
a 89 102 2
a 102 89 2
a 89 90 10
a 90 89 10
a 90 103 10
a 103 90 10
a 90 91 10
a 91 90 10
a 91 104 8
a 104 91 8
a 92 105 7
a 105 92 7
a 92 93 4
a 93 92 4
a 93 106 9
a 106 93 9
a 93 94 4
a 94 93 4
a 94 107 2
a 107 94 2
a 94 95 7
a 95 94 7
a 95 108 8
a 108 95 8
a 95 96 6
a 96 95 6
a 96 97 7
a 97 96 7
a 97 110 6
a 110 97 6
a 97 98 1
a 98 97 1
a 98 99 4
a 99 98 4
a 99 112 6
a 112 99 6
a 99 100 7
a 100 99 7
a 100 113 5
a 113 100 5
a 100 101 4
a 101 100 4
a 101 114 6
a 114 101 6
a 101 102 2
a 102 101 2
a 102 115 8
a 115 102 8
a 102 103 9
a 103 102 9
a 103 104 8
a 104 103 8
a 104 117 1
a 117 104 1
a 105 106 2
a 106 105 2
a 106 119 1
a 119 106 1
a 106 107 3
a 107 106 3
a 107 120 8
a 120 107 8
a 107 108 8
a 108 107 8
a 108 121 6
a 121 108 6
a 110 123 2
a 123 110 2
a 112 125 6
a 125 112 6
a 112 113 10
a 113 112 10
a 113 126 6
a 126 113 6
a 113 114 8
a 114 113 8
a 114 127 6
a 127 114 6
a 114 115 6
a 115 114 6
a 115 128 9
a 128 115 9
a 117 130 10
a 130 117 10
a 119 132 7
a 132 119 7
a 119 120 4
a 120 119 4
a 120 121 8
a 121 120 8
a 121 134 7
a 134 121 7
a 121 122 9
a 122 121 9
a 122 135 2
a 135 122 2
a 122 123 9
a 123 122 9
a 123 136 1
a 136 123 1
a 123 124 9
a 124 123 9
a 124 137 5
a 137 124 5
a 124 125 1
a 125 124 1
a 125 138 7
a 138 125 7
a 125 126 8
a 126 125 8
a 126 139 8
a 139 126 8
a 126 127 2
a 127 126 2
a 127 140 10
a 140 127 10
a 127 128 2
a 128 127 2
a 128 141 8
a 141 128 8
a 128 129 1
a 129 128 1
a 129 130 6
a 130 129 6
a 130 143 4
a 143 130 4
a 131 144 1
a 144 131 1
a 131 132 8
a 132 131 8
a 132 145 1
a 145 132 1
a 134 147 1
a 147 134 1
a 134 135 10
a 135 134 10
a 135 148 2
a 148 135 2
a 135 136 2
a 136 135 2
a 136 149 5
a 149 136 5
a 136 137 5
a 137 136 5
a 137 138 3
a 138 137 3
a 138 151 2
a 151 138 2
a 138 139 5
a 139 138 5
a 139 152 3
a 152 139 3
a 139 140 6
a 140 139 6
a 140 141 6
a 141 140 6
a 141 154 1
a 154 141 1
a 143 156 3
a 156 143 3
a 144 157 2
a 157 144 2
a 144 145 9
a 145 144 9
a 145 158 7
a 158 145 7
a 145 146 1
a 146 145 1
a 146 159 1
a 159 146 1
a 146 147 8
a 147 146 8
a 147 160 4
a 160 147 4
a 147 148 10
a 148 147 10
a 148 161 6
a 161 148 6
a 148 149 1
a 149 148 1
a 149 162 10
a 162 149 10
a 151 164 3
a 164 151 3
a 151 152 1
a 152 151 1
a 152 165 7
a 165 152 7
a 154 167 2
a 167 154 2
a 154 155 6
a 155 154 6
a 155 168 1
a 168 155 1
a 155 156 7
a 156 155 7
a 156 169 10
a 169 156 10
a 157 158 9
a 158 157 9
a 158 159 8
a 159 158 8
a 159 160 1
a 160 159 1
a 160 161 4
a 161 160 4
a 161 162 7
a 162 161 7
a 162 163 8
a 163 162 8
a 163 164 7
a 164 163 7
a 164 165 2
a 165 164 2
a 165 166 6
a 166 165 6
a 166 167 6
a 167 166 6
a 167 168 8
a 168 167 8
a 168 169 5
a 169 168 5
